2
1000 4
45
150 1 2
151 1 2
152 1 1
153 1 3
154 1 1
155 1 2
158 1 5
160 1 4
161 1 3
162 1 3
163 1 3
164 1 1
165 1 1
166 1 3
167 1 2
168 1 2
169 1 2
170 1 3
171 1 5
172 1 3
173 1 3
174 1 4
176 1 2
177 1 3
178 1 3
179 1 3
180 1 2
181 1 3
182 1 3
183 1 3
184 1 1
185 1 2
186 1 5
187 1 5
188 1 2
190 1 1
191 1 1
192 1 3
193 1 1
194 1 4
196 1 3
197 1 1
198 1 4
199 1 3
200 1 4
